TSPLIB/results1.tsp
NAME : results1
COMMENT : a comment by the user
TYPE : TSP
DIMENSION : 30
EDGE_WEIGHT_TYPE : EXPLICIT
EDGE_WEIGHT_FORMAT: FULL_MATRIX
EDGE_WEIGHT_SECTION
0 0 9419200 25209200 57269 16975355 16975355 15735200 16975355 51162 54000 0 0 9419200 9419200 15735200 15735200 51000 25209200 53038 0 9999999999 9999999999 9999999999 9999999999 9999999999 9999999999 9999999999 9999999999 9999999999
0 0 29125193 10459662 65384 51108 51108 31506716 51108 55001 56275 28051400 28051400 29125193 29125193 31506716 31506716 53780 10459662 51076 0 9999999999 9999999999 9999999999 9999999999 9999999999 9999999999 9999999999 9999999999 9999999999
9419200 29125193 0 0 56819 10551730 10551730 8156000 10551730 29653716 56400 9419200 9419200 0 0 8156000 8156000 28998800 23946000 51088 9999999999 0 9999999999 9999999999 9999999999 9999999999 9999999999 9999999999 9999999999 9999999999
25209200 10459662 0 0 63784 30647122 30647122 24830587 30647122 52376 57831 25209200 25209200 23946000 23946000 24830587 24830587 51088 0 28998800 9999999999 0 9999999999 9999999999 9999999999 9999999999 9999999999 9999999999 9999999999 9999999999
57269 65384 56819 63784 0 0 54800 56700 54800 56204 64848 57269 57269 56819 56819 56700 56700 57956 63784 64601 9999999999 9999999999 0 9999999999 9999999999 9999999999 9999999999 9999999999 9999999999 9999999999
16975355 51108 10551730 30647122 0 0 0 7840200 0 22682800 58497 16975355 16975355 10551730 10551730 7840200 7840200 23529276 30647122 51080 9999999999 9999999999 0 9999999999 9999999999 9999999999 9999999999 9999999999 9999999999 9999999999
16975355 51108 10551730 30647122 54800 0 0 0 0 22682800 58497 16975355 16975355 10551730 10551730 7840200 7840200 23529276 30647122 51080 9999999999 9999999999 9999999999 0 9999999999 9999999999 9999999999 9999999999 9999999999 9999999999
15735200 31506716 8156000 24830587 56700 7840200 0 0 7840200 23529276 58400 15735200 15735200 8156000 8156000 0 0 22682800 24830587 32222520 9999999999 9999999999 9999999999 0 9999999999 9999999999 9999999999 9999999999 9999999999 9999999999
16975355 51108 10551730 30647122 54800 0 0 7840200 0 0 58497 16975355 16975355 10551730 10551730 7840200 7840200 23529276 30647122 51080 9999999999 9999999999 9999999999 9999999999 0 9999999999 9999999999 9999999999 9999999999 9999999999
51162 55001 29653716 52376 56204 22682800 22682800 23529276 0 0 65072 51162 51162 29653716 29653716 23529276 23529276 7840200 52376 29946200 9999999999 9999999999 9999999999 9999999999 0 9999999999 9999999999 9999999999 9999999999 9999999999
54000 56275 56400 57831 64848 58497 58497 58400 58497 65072 0 0 54000 56400 56400 58400 58400 65000 57831 65961 9999999999 9999999999 9999999999 9999999999 9999999999 0 9999999999 9999999999 9999999999 9999999999
0 28051400 9419200 25209200 57269 16975355 16975355 15735200 16975355 51162 0 0 0 9419200 9419200 15735200 15735200 51000 25209200 53038 9999999999 9999999999 9999999999 9999999999 9999999999 0 9999999999 9999999999 9999999999 9999999999
0 28051400 9419200 25209200 57269 16975355 16975355 15735200 16975355 51162 54000 0 0 0 9419200 15735200 15735200 51000 25209200 53038 9999999999 9999999999 9999999999 9999999999 9999999999 9999999999 0 9999999999 9999999999 9999999999
9419200 29125193 0 23946000 56819 10551730 10551730 8156000 10551730 29653716 56400 9419200 0 0 0 8156000 8156000 28998800 23946000 51088 9999999999 9999999999 9999999999 9999999999 9999999999 9999999999 0 9999999999 9999999999 9999999999
9419200 29125193 0 23946000 56819 10551730 10551730 8156000 10551730 29653716 56400 9419200 9419200 0 0 0 8156000 28998800 23946000 51088 9999999999 9999999999 9999999999 9999999999 9999999999 9999999999 9999999999 0 9999999999 9999999999
15735200 31506716 8156000 24830587 56700 7840200 7840200 0 7840200 23529276 58400 15735200 15735200 8156000 0 0 0 22682800 24830587 32222520 9999999999 9999999999 9999999999 9999999999 9999999999 9999999999 9999999999 0 9999999999 9999999999
15735200 31506716 8156000 24830587 56700 7840200 7840200 0 7840200 23529276 58400 15735200 15735200 8156000 8156000 0 0 0 24830587 32222520 9999999999 9999999999 9999999999 9999999999 9999999999 9999999999 9999999999 9999999999 0 9999999999
51000 53780 28998800 51088 57956 23529276 23529276 22682800 23529276 7840200 65000 51000 51000 28998800 28998800 22682800 0 0 51088 23946000 9999999999 9999999999 9999999999 9999999999 9999999999 9999999999 9999999999 9999999999 0 9999999999
25209200 10459662 23946000 0 63784 30647122 30647122 24830587 30647122 52376 57831 25209200 25209200 23946000 23946000 24830587 24830587 51088 0 0 9999999999 9999999999 9999999999 9999999999 9999999999 9999999999 9999999999 9999999999 9999999999 0
53038 51076 51088 28998800 64601 51080 51080 32222520 51080 29946200 65961 53038 53038 51088 51088 32222520 32222520 23946000 0 0 9999999999 9999999999 9999999999 9999999999 9999999999 9999999999 9999999999 9999999999 9999999999 0
0 0 9999999999 9999999999 9999999999 9999999999 9999999999 9999999999 9999999999 9999999999 9999999999 9999999999 9999999999 9999999999 9999999999 9999999999 9999999999 9999999999 9999999999 9999999999 0 9999999999 9999999999 9999999999 9999999999 9999999999 9999999999 9999999999 9999999999 9999999999
9999999999 9999999999 0 0 9999999999 9999999999 9999999999 9999999999 9999999999 9999999999 9999999999 9999999999 9999999999 9999999999 9999999999 9999999999 9999999999 9999999999 9999999999 9999999999 9999999999 0 9999999999 9999999999 9999999999 9999999999 9999999999 9999999999 9999999999 9999999999
9999999999 9999999999 9999999999 9999999999 0 0 9999999999 9999999999 9999999999 9999999999 9999999999 9999999999 9999999999 9999999999 9999999999 9999999999 9999999999 9999999999 9999999999 9999999999 9999999999 9999999999 0 9999999999 9999999999 9999999999 9999999999 9999999999 9999999999 9999999999
9999999999 9999999999 9999999999 9999999999 9999999999 9999999999 0 0 9999999999 9999999999 9999999999 9999999999 9999999999 9999999999 9999999999 9999999999 9999999999 9999999999 9999999999 9999999999 9999999999 9999999999 9999999999 0 9999999999 9999999999 9999999999 9999999999 9999999999 9999999999
9999999999 9999999999 9999999999 9999999999 9999999999 9999999999 9999999999 9999999999 0 0 9999999999 9999999999 9999999999 9999999999 9999999999 9999999999 9999999999 9999999999 9999999999 9999999999 9999999999 9999999999 9999999999 9999999999 0 9999999999 9999999999 9999999999 9999999999 9999999999
9999999999 9999999999 9999999999 9999999999 9999999999 9999999999 9999999999 9999999999 9999999999 9999999999 0 0 9999999999 9999999999 9999999999 9999999999 9999999999 9999999999 9999999999 9999999999 9999999999 9999999999 9999999999 9999999999 9999999999 0 9999999999 9999999999 9999999999 9999999999
9999999999 9999999999 9999999999 9999999999 9999999999 9999999999 9999999999 9999999999 9999999999 9999999999 9999999999 9999999999 0 0 9999999999 9999999999 9999999999 9999999999 9999999999 9999999999 9999999999 9999999999 9999999999 9999999999 9999999999 9999999999 0 9999999999 9999999999 9999999999
9999999999 9999999999 9999999999 9999999999 9999999999 9999999999 9999999999 9999999999 9999999999 9999999999 9999999999 9999999999 9999999999 9999999999 0 0 9999999999 9999999999 9999999999 9999999999 9999999999 9999999999 9999999999 9999999999 9999999999 9999999999 9999999999 0 9999999999 9999999999
9999999999 9999999999 9999999999 9999999999 9999999999 9999999999 9999999999 9999999999 9999999999 9999999999 9999999999 9999999999 9999999999 9999999999 9999999999 9999999999 0 0 9999999999 9999999999 9999999999 9999999999 9999999999 9999999999 9999999999 9999999999 9999999999 9999999999 0 9999999999
9999999999 9999999999 9999999999 9999999999 9999999999 9999999999 9999999999 9999999999 9999999999 9999999999 9999999999 9999999999 9999999999 9999999999 9999999999 9999999999 9999999999 9999999999 0 0 9999999999 9999999999 9999999999 9999999999 9999999999 9999999999 9999999999 9999999999 9999999999 0
EOF
